c File: instances/28_0.60_3.col
c
c Description: Random graph of size 28 vertices and P(0.6) of edges between any two vertices.
p col 28 378
e 1 2
e 1 4
e 1 9
e 1 10
e 1 11
e 1 16
e 1 17
e 1 20
e 1 21
e 1 23
e 1 25
e 1 27
e 1 28
e 2 4
e 2 7
e 2 8
e 2 10
e 2 11
e 2 12
e 2 13
e 2 14
e 2 15
e 2 16
e 2 17
e 2 18
e 2 19
e 2 20
e 2 24
e 2 25
e 3 4
e 3 8
e 3 10
e 3 13
e 3 14
e 3 16
e 3 18
e 3 19
e 3 20
e 3 21
e 3 22
e 3 24
e 3 25
e 3 26
e 3 27
e 3 28
e 4 5
e 4 6
e 4 7
e 4 8
e 4 9
e 4 10
e 4 11
e 4 13
e 4 14
e 4 15
e 4 16
e 4 21
e 4 22
e 4 23
e 4 26
e 5 7
e 5 8
e 5 9
e 5 10
e 5 13
e 5 15
e 5 16
e 5 21
e 5 22
e 5 24
e 5 25
e 5 26
e 5 27
e 5 28
e 6 8
e 6 9
e 6 10
e 6 13
e 6 15
e 6 17
e 6 18
e 6 20
e 6 23
e 6 24
e 6 25
e 6 27
e 7 11
e 7 12
e 7 14
e 7 15
e 7 16
e 7 18
e 7 21
e 7 22
e 8 10
e 8 12
e 8 14
e 8 15
e 8 16
e 8 17
e 8 18
e 8 19
e 8 20
e 8 22
e 8 24
e 8 25
e 8 26
e 8 28
e 9 10
e 9 11
e 9 12
e 9 13
e 9 15
e 9 16
e 9 19
e 9 22
e 9 24
e 9 25
e 9 26
e 9 27
e 9 28
e 10 13
e 10 15
e 10 16
e 10 23
e 10 25
e 10 26
e 10 27
e 11 12
e 11 14
e 11 15
e 11 16
e 11 17
e 11 19
e 11 24
e 11 27
e 12 13
e 12 15
e 12 16
e 12 17
e 12 18
e 12 19
e 12 21
e 12 22
e 12 24
e 12 25
e 12 28
e 13 14
e 13 17
e 13 19
e 13 20
e 13 22
e 13 23
e 13 24
e 13 25
e 13 27
e 13 28
e 14 16
e 14 17
e 14 18
e 14 19
e 14 20
e 14 21
e 14 25
e 14 26
e 15 18
e 15 20
e 15 24
e 15 25
e 15 26
e 15 28
e 16 18
e 16 19
e 16 20
e 16 21
e 16 24
e 16 26
e 16 27
e 17 18
e 17 19
e 17 20
e 17 22
e 17 23
e 17 25
e 17 26
e 17 27
e 17 28
e 18 19
e 18 20
e 18 21
e 18 23
e 18 26
e 19 20
e 19 25
e 19 26
e 20 22
e 20 23
e 20 24
e 20 25
e 20 26
e 20 28
e 21 22
e 21 24
e 21 28
e 22 23
e 22 24
e 22 25
e 22 26
e 22 27
e 23 24
e 23 28
e 24 27
e 24 28
e 25 26
e 25 27
e 26 27
e 27 28